1111100 AB
320 334 348 363 378 391 404 412 419 426 434 442 450 458 465 471 478 485 492 498 504 516 529 542 1246 1260 1269 1279 1293 1307 1321 1344 1366 1389 1412 1436 21 45
1111100 AB red
1284 1288 1355 1377 61 87 111
1111100 BA red
307 322 337 352 292
0000011 AB
320 367 390 437 463 477 504 517 531 547 562 577 592 608 624 640 655 687 703 718 733 764 780 793 805 817 843 856 870 883 897 923 936 949 962 975 1001 1014 1027 1039 1051 1063 1083 1093 1104 1115 1126 1137 1148 1159 1172 1185 1213 1226 1240 1262 1301 1322 1371 1394 1
0000011 AB red
1192 1250 1291 1311 1334 24 71
0000011 BA red
340 293
